
Gurobi 11.0.3 (linux64) logging started Mon Dec 15 14:40:43 2025

Set parameter LogFile to value "./log/train/IS_800_5/IS_2.lp.log"
Set parameter TimeLimit to value 3600
Gurobi Optimizer version 11.0.3 build v11.0.3rc0 (linux64 - "Ubuntu 22.04.5 LTS")

CPU model: AMD Ryzen 9 9900X 12-Core Processor, instruction set [SSE2|AVX|AVX2|AVX512]
Thread count: 12 physical cores, 24 logical processors, using up to 24 threads

Optimize a model with 4113 rows, 800 columns and 8062 nonzeros
Model fingerprint: 0xa2e85d8e
Variable types: 0 continuous, 800 integer (800 binary)
Coefficient statistics:
  Matrix range     [1e+00, 1e+00]
  Objective range  [1e+00, 1e+00]
  Bounds range     [1e+00, 1e+00]
  RHS range        [1e+00, 1e+00]
Found heuristic solution: objective 204.0000000
Presolve removed 911 rows and 0 columns
Presolve time: 0.01s
Presolved: 3202 rows, 800 columns, 7148 nonzeros
Variable types: 0 continuous, 800 integer (800 binary)

Root relaxation: objective 3.668333e+02, 1382 iterations, 0.02 seconds (0.05 work units)

    Nodes    |    Current Node    |     Objective Bounds      |     Work
 Expl Unexpl |  Obj  Depth IntInf | Incumbent    BestBd   Gap | It/Node Time

     0     0  366.83333    0  714  204.00000  366.83333  79.8%     -    0s
H    0     0                     308.0000000  366.83333  19.1%     -    0s
H    0     0                     309.0000000  366.83333  18.7%     -    0s
H    0     0                     321.0000000  358.98923  11.8%     -    0s
H    0     0                     327.0000000  358.98923  9.78%     -    0s
H    0     0                     329.0000000  358.98923  9.12%     -    0s
     0     0  358.91379    0  788  329.00000  358.91379  9.09%     -    0s
H    0     0                     331.0000000  358.91379  8.43%     -    0s
     0     0  355.05336    0  777  331.00000  355.05336  7.27%     -    0s
     0     0  355.00643    0  783  331.00000  355.00643  7.25%     -    0s
H    0     0                     333.0000000  354.99543  6.61%     -    0s
     0     0  354.99543    0  784  333.00000  354.99543  6.61%     -    0s
     0     0  354.99512    0  784  333.00000  354.99512  6.61%     -    0s
H    0     0                     335.0000000  354.99512  5.97%     -    0s
     0     0  353.33255    0  782  335.00000  353.33255  5.47%     -    0s
     0     0  353.13167    0  782  335.00000  353.13167  5.41%     -    0s
     0     0  353.11588    0  783  335.00000  353.11588  5.41%     -    0s
     0     0  353.11446    0  784  335.00000  353.11446  5.41%     -    0s
     0     0  352.59494    0  786  335.00000  352.59494  5.25%     -    0s
     0     0  352.51278    0  785  335.00000  352.51278  5.23%     -    0s
     0     0  352.47433    0  784  335.00000  352.47433  5.22%     -    0s
     0     0  352.46504    0  786  335.00000  352.46504  5.21%     -    0s
     0     0  352.46441    0  785  335.00000  352.46441  5.21%     -    0s
     0     0  351.92466    0  783  335.00000  351.92466  5.05%     -    0s
     0     0  351.85880    0  785  335.00000  351.85880  5.03%     -    0s
     0     0  351.85719    0  786  335.00000  351.85719  5.03%     -    0s
     0     0  351.30612    0  784  335.00000  351.30612  4.87%     -    0s
     0     0  351.17464    0  784  335.00000  351.17464  4.83%     -    0s
     0     0  351.15248    0  789  335.00000  351.15248  4.82%     -    0s
     0     0  351.14957    0  790  335.00000  351.14957  4.82%     -    0s
     0     0  350.59701    0  783  335.00000  350.59701  4.66%     -    0s
     0     0  350.54990    0  785  335.00000  350.54990  4.64%     -    0s
     0     0  350.54578    0  787  335.00000  350.54578  4.64%     -    0s
     0     0  349.98764    0  783  335.00000  349.98764  4.47%     -    0s
     0     0  349.85997    0  787  335.00000  349.85997  4.44%     -    0s
     0     0  349.85979    0  786  335.00000  349.85979  4.44%     -    0s
     0     0  349.64727    0  785  335.00000  349.64727  4.37%     -    0s
     0     0  349.57157    0  786  335.00000  349.57157  4.35%     -    0s
     0     0  349.56391    0  788  335.00000  349.56391  4.35%     -    0s
     0     0  349.55447    0  788  335.00000  349.55447  4.34%     -    0s
     0     0  349.55360    0  788  335.00000  349.55360  4.34%     -    0s
     0     0  349.39217    0  784  335.00000  349.39217  4.30%     -    0s
     0     0  349.30747    0  786  335.00000  349.30747  4.27%     -    1s
     0     0  349.29488    0  787  335.00000  349.29488  4.27%     -    1s
     0     0  349.28102    0  787  335.00000  349.28102  4.26%     -    1s
     0     0  349.27935    0  787  335.00000  349.27935  4.26%     -    1s
     0     0  349.19688    0  787  335.00000  349.19688  4.24%     -    1s
     0     0  349.17141    0  789  335.00000  349.17141  4.23%     -    1s
     0     0  349.16745    0  788  335.00000  349.16745  4.23%     -    1s
     0     0  348.90927    0  789  335.00000  348.90927  4.15%     -    1s
     0     0  348.89004    0  788  335.00000  348.89004  4.15%     -    1s
     0     0  348.88274    0  789  335.00000  348.88274  4.14%     -    1s
     0     0  348.88188    0  789  335.00000  348.88188  4.14%     -    1s
     0     0  348.88174    0  788  335.00000  348.88174  4.14%     -    1s
     0     0  348.88174    0  788  335.00000  348.88174  4.14%     -    1s
     0     2  348.88174    0  788  335.00000  348.88174  4.14%     -    1s
H   35    32                     336.0000000  348.22868  3.64%   798    1s
H  183   101                     337.0000000  348.12386  3.30%   415    2s
H  275   103                     338.0000000  347.93369  2.94%   373    2s
   747   247  341.11601   35  704  338.00000  347.93369  2.94%   361    5s

Cutting planes:
  Gomory: 2
  Zero half: 234
  RLT: 239
  BQP: 74

Explored 3470 nodes (869780 simplex iterations) in 8.32 seconds (25.68 work units)
Thread count was 24 (of 24 available processors)

Solution count 10: 338 337 336 ... 309

Optimal solution found (tolerance 1.00e-04)
Best objective 3.380000000000e+02, best bound 3.380000000000e+02, gap 0.0000%

User-callback calls 8706, time in user-callback 0.00 sec
